# Objective value = 7
x0,1_3 1
x0,1_9 0
x0,1_10 0
x0,1_31 0
x0,1_34 0
x0,1_50 0
x0,1_85 0
x0,1_91 0
x0,1_95 0
x0,1_96 0
x0,2_3 0
x0,2_9 0
x0,2_10 0
x0,2_31 0
x0,2_34 1
x0,2_50 0
x0,2_85 0
x0,2_91 0
x0,2_95 0
x0,2_96 0
x0,3_3 0
x0,3_9 0
x0,3_10 0
x0,3_31 0
x0,3_34 0
x0,3_50 0
x0,3_85 0
x0,3_91 0
x0,3_95 0
x0,3_96 0
x0,4_3 0
x0,4_9 0
x0,4_10 0
x0,4_31 0
x0,4_34 0
x0,4_50 0
x0,4_85 1
x0,4_91 0
x0,4_95 0
x0,4_96 0
x0,5_3 0
x0,5_9 0
x0,5_10 0
x0,5_31 0
x0,5_34 0
x0,5_50 0
x0,5_85 0
x0,5_91 0
x0,5_95 0
x0,5_96 0
x0,6_3 0
x0,6_9 0
x0,6_10 0
x0,6_31 0
x0,6_34 0
x0,6_50 0
x0,6_85 0
x0,6_91 0
x0,6_95 0
x0,6_96 0
x0,7_3 0
x0,7_9 0
x0,7_10 0
x0,7_31 0
x0,7_34 0
x0,7_50 0
x0,7_85 0
x0,7_91 0
x0,7_95 0
x0,7_96 0
x0,8_3 0
x0,8_9 0
x0,8_10 0
x0,8_31 0
x0,8_34 0
x0,8_50 0
x0,8_85 0
x0,8_91 0
x0,8_95 0
x0,8_96 0
x0,9_3 0
x0,9_9 0
x0,9_10 0
x0,9_31 0
x0,9_34 0
x0,9_50 0
x0,9_85 0
x0,9_91 0
x0,9_95 0
x0,9_96 0
x0,10_3 0
x0,10_9 0
x0,10_10 0
x0,10_31 0
x0,10_34 0
x0,10_50 0
x0,10_85 0
x0,10_91 0
x0,10_95 0
x0,10_96 0
x1,2_3 0
x1,2_9 0
x1,2_10 0
x1,2_31 1
x1,2_34 0
x1,2_50 0
x1,2_85 0
x1,2_91 0
x1,2_95 0
x1,2_96 0
x1,3_3 0
x1,3_9 0
x1,3_10 0
x1,3_31 0
x1,3_34 0
x1,3_50 0
x1,3_85 0
x1,3_91 0
x1,3_95 0
x1,3_96 0
x1,4_3 0
x1,4_9 0
x1,4_10 0
x1,4_31 0
x1,4_34 0
x1,4_50 0
x1,4_85 0
x1,4_91 0
x1,4_95 0
x1,4_96 0
x1,5_3 0
x1,5_9 0
x1,5_10 0
x1,5_31 0
x1,5_34 0
x1,5_50 0
x1,5_85 0
x1,5_91 1
x1,5_95 0
x1,5_96 0
x1,6_3 0
x1,6_9 0
x1,6_10 0
x1,6_31 0
x1,6_34 0
x1,6_50 0
x1,6_85 0
x1,6_91 0
x1,6_95 0
x1,6_96 0
x1,7_3 0
x1,7_9 0
x1,7_10 0
x1,7_31 0
x1,7_34 0
x1,7_50 0
x1,7_85 0
x1,7_91 0
x1,7_95 0
x1,7_96 0
x1,8_3 0
x1,8_9 0
x1,8_10 0
x1,8_31 0
x1,8_34 0
x1,8_50 0
x1,8_85 0
x1,8_91 0
x1,8_95 0
x1,8_96 0
x1,9_3 0
x1,9_9 0
x1,9_10 0
x1,9_31 0
x1,9_34 0
x1,9_50 0
x1,9_85 0
x1,9_91 0
x1,9_95 0
x1,9_96 0
x1,10_3 0
x1,10_9 0
x1,10_10 0
x1,10_31 0
x1,10_34 0
x1,10_50 0
x1,10_85 0
x1,10_91 0
x1,10_95 0
x1,10_96 0
x2,3_3 0
x2,3_9 0
x2,3_10 0
x2,3_31 0
x2,3_34 0
x2,3_50 1
x2,3_85 0
x2,3_91 0
x2,3_95 0
x2,3_96 0
x2,4_3 0
x2,4_9 0
x2,4_10 0
x2,4_31 0
x2,4_34 0
x2,4_50 0
x2,4_85 0
x2,4_91 0
x2,4_95 0
x2,4_96 0
x2,5_3 0
x2,5_9 0
x2,5_10 0
x2,5_31 0
x2,5_34 0
x2,5_50 0
x2,5_85 0
x2,5_91 0
x2,5_95 0
x2,5_96 0
x2,6_3 0
x2,6_9 0
x2,6_10 0
x2,6_31 0
x2,6_34 0
x2,6_50 0
x2,6_85 0
x2,6_91 0
x2,6_95 0
x2,6_96 0
x2,7_3 0
x2,7_9 0
x2,7_10 0
x2,7_31 0
x2,7_34 0
x2,7_50 0
x2,7_85 0
x2,7_91 0
x2,7_95 0
x2,7_96 0
x2,8_3 0
x2,8_9 0
x2,8_10 0
x2,8_31 0
x2,8_34 0
x2,8_50 0
x2,8_85 0
x2,8_91 0
x2,8_95 0
x2,8_96 0
x2,9_3 0
x2,9_9 0
x2,9_10 0
x2,9_31 0
x2,9_34 0
x2,9_50 0
x2,9_85 0
x2,9_91 0
x2,9_95 0
x2,9_96 0
x2,10_3 0
x2,10_9 0
x2,10_10 0
x2,10_31 0
x2,10_34 0
x2,10_50 0
x2,10_85 0
x2,10_91 0
x2,10_95 0
x2,10_96 0
x3,4_3 0
x3,4_9 0
x3,4_10 0
x3,4_31 0
x3,4_34 0
x3,4_50 0
x3,4_85 0
x3,4_91 0
x3,4_95 0
x3,4_96 0
x3,5_3 0
x3,5_9 0
x3,5_10 1
x3,5_31 0
x3,5_34 0
x3,5_50 0
x3,5_85 0
x3,5_91 0
x3,5_95 0
x3,5_96 0
x3,6_3 0
x3,6_9 0
x3,6_10 0
x3,6_31 0
x3,6_34 0
x3,6_50 0
x3,6_85 0
x3,6_91 0
x3,6_95 0
x3,6_96 1
x3,7_3 0
x3,7_9 0
x3,7_10 0
x3,7_31 0
x3,7_34 0
x3,7_50 0
x3,7_85 0
x3,7_91 0
x3,7_95 0
x3,7_96 0
x3,8_3 0
x3,8_9 0
x3,8_10 0
x3,8_31 0
x3,8_34 0
x3,8_50 0
x3,8_85 0
x3,8_91 0
x3,8_95 0
x3,8_96 0
x3,9_3 0
x3,9_9 0
x3,9_10 0
x3,9_31 0
x3,9_34 0
x3,9_50 0
x3,9_85 0
x3,9_91 0
x3,9_95 0
x3,9_96 0
x3,10_3 0
x3,10_9 0
x3,10_10 0
x3,10_31 0
x3,10_34 0
x3,10_50 0
x3,10_85 0
x3,10_91 0
x3,10_95 0
x3,10_96 0
x4,5_3 0
x4,5_9 1
x4,5_10 0
x4,5_31 0
x4,5_34 0
x4,5_50 0
x4,5_85 0
x4,5_91 0
x4,5_95 0
x4,5_96 0
x4,6_3 0
x4,6_9 0
x4,6_10 0
x4,6_31 0
x4,6_34 0
x4,6_50 0
x4,6_85 0
x4,6_91 0
x4,6_95 1
x4,6_96 0
x4,7_3 0
x4,7_9 0
x4,7_10 0
x4,7_31 0
x4,7_34 0
x4,7_50 0
x4,7_85 0
x4,7_91 0
x4,7_95 0
x4,7_96 0
x4,8_3 0
x4,8_9 0
x4,8_10 0
x4,8_31 0
x4,8_34 0
x4,8_50 0
x4,8_85 0
x4,8_91 0
x4,8_95 0
x4,8_96 0
x4,9_3 0
x4,9_9 0
x4,9_10 0
x4,9_31 0
x4,9_34 0
x4,9_50 0
x4,9_85 0
x4,9_91 0
x4,9_95 0
x4,9_96 0
x4,10_3 0
x4,10_9 0
x4,10_10 0
x4,10_31 0
x4,10_34 0
x4,10_50 0
x4,10_85 0
x4,10_91 0
x4,10_95 0
x4,10_96 0
x5,6_3 0
x5,6_9 0
x5,6_10 0
x5,6_31 0
x5,6_34 0
x5,6_50 0
x5,6_85 0
x5,6_91 0
x5,6_95 0
x5,6_96 0
x5,7_3 0
x5,7_9 0
x5,7_10 0
x5,7_31 0
x5,7_34 0
x5,7_50 0
x5,7_85 0
x5,7_91 0
x5,7_95 0
x5,7_96 0
x5,8_3 0
x5,8_9 0
x5,8_10 0
x5,8_31 0
x5,8_34 0
x5,8_50 0
x5,8_85 0
x5,8_91 0
x5,8_95 0
x5,8_96 0
x5,9_3 0
x5,9_9 0
x5,9_10 0
x5,9_31 0
x5,9_34 0
x5,9_50 0
x5,9_85 0
x5,9_91 0
x5,9_95 0
x5,9_96 0
x5,10_3 0
x5,10_9 0
x5,10_10 0
x5,10_31 0
x5,10_34 0
x5,10_50 0
x5,10_85 0
x5,10_91 0
x5,10_95 0
x5,10_96 0
x6,7_3 0
x6,7_9 0
x6,7_10 0
x6,7_31 0
x6,7_34 0
x6,7_50 0
x6,7_85 0
x6,7_91 0
x6,7_95 0
x6,7_96 0
x6,8_3 0
x6,8_9 0
x6,8_10 0
x6,8_31 0
x6,8_34 0
x6,8_50 0
x6,8_85 0
x6,8_91 0
x6,8_95 0
x6,8_96 0
x6,9_3 0
x6,9_9 0
x6,9_10 0
x6,9_31 0
x6,9_34 0
x6,9_50 0
x6,9_85 0
x6,9_91 0
x6,9_95 0
x6,9_96 0
x6,10_3 0
x6,10_9 0
x6,10_10 0
x6,10_31 0
x6,10_34 0
x6,10_50 0
x6,10_85 0
x6,10_91 0
x6,10_95 0
x6,10_96 0
x7,8_3 0
x7,8_9 0
x7,8_10 0
x7,8_31 0
x7,8_34 0
x7,8_50 0
x7,8_85 0
x7,8_91 0
x7,8_95 0
x7,8_96 0
x7,9_3 0
x7,9_9 0
x7,9_10 0
x7,9_31 0
x7,9_34 0
x7,9_50 0
x7,9_85 0
x7,9_91 0
x7,9_95 0
x7,9_96 0
x7,10_3 0
x7,10_9 0
x7,10_10 0
x7,10_31 0
x7,10_34 0
x7,10_50 0
x7,10_85 0
x7,10_91 0
x7,10_95 0
x7,10_96 0
x8,9_3 0
x8,9_9 0
x8,9_10 0
x8,9_31 0
x8,9_34 0
x8,9_50 0
x8,9_85 0
x8,9_91 0
x8,9_95 0
x8,9_96 0
x8,10_3 0
x8,10_9 0
x8,10_10 0
x8,10_31 0
x8,10_34 0
x8,10_50 0
x8,10_85 0
x8,10_91 0
x8,10_95 0
x8,10_96 0
x9,10_3 0
x9,10_9 0
x9,10_10 0
x9,10_31 0
x9,10_34 0
x9,10_50 0
x9,10_85 0
x9,10_91 0
x9,10_95 0
x9,10_96 0
z0 1
z1 1
z2 1
z3 1
z4 1
z5 1
z6 1
z7 0
z8 0
z9 0
z10 0
p0 3
p1 6
p2 37
p3 87
p4 88
p5 97
p6 183
p7 188
p8 189
p9 190
p10 191
